NAME : ftv44
TYPE : TOUR
DIMENSION : 45
TOUR_LENGTH : 2077.0
SECTION : TOUR_SECTION
1
31
26
29
33
37
35
34
28
27
43
19
17
18
16
13
14
44
12
11
21
8
10
9
5
7
42
40
41
38
45
4
39
36
32
2
6
3
30
23
25
24
15
20
22
-1
EOF
